proyfinal/src/viki/013/experimentInOfficeAgust.take6.output/2ceb890b-4a9f-4328-9223-f13329c7d785.als.out
Reading from standard input... Use '--help' for help.
============================[ Problem Statistics ]=============================
|                                                                             |
|  Number of variables:         87638                                         |
|  Number of clauses:          161767                                         |
|  Parse time:                   0.04 s                                       |
|                                                                             |
============================[ Search Statistics ]==============================
| Conflicts |          ORIGINAL         |          LEARNT          | Progress |
|           |    Vars  Clauses Literals |    Limit  Clauses Lit/Cl |          |
===============================================================================
|       100 |   63785   110322   275392 |    40451      100     15 | 27.218 % |
|       250 |   63785   110322   275392 |    44496      250     93 | 27.218 % |
|       475 |   63785   110322   275392 |    48946      475     74 | 27.218 % |
|       812 |   63672   110008   274650 |    53840      806     82 | 27.347 % |
|      1318 |   63672   109852   274295 |    59224     1312     87 | 27.347 % |
|      2077 |   63635   109775   274118 |    65147     2068     72 | 27.389 % |
|      3216 |   63635   109701   273947 |    71662     3207     70 | 27.389 % |
|      4924 |   63635   109701   273947 |    78828     4915     69 | 27.389 % |
|      7486 |   57236    89308   223909 |    86711     7429     67 | 34.690 % |
|     11330 |   56298    86028   215474 |    95382     9234     65 | 35.761 % |
|     17096 |   56040    84953   212942 |   104920    13727     64 | 36.055 % |
===============================================================================
restarts              : 63
conflicts             : 18960          (8153 /sec)
decisions             : 66004          (0.00 % random) (28383 /sec)
propagations          : 24475643       (10524822 /sec)
conflict literals     : 1175829        (47.08 % deleted)
Memory used           : 34.30 MB
CPU time              : 2.32552 s

INDETERMINATE
